\Problem name: compact

Minimize
OBJROW: C
Subject To
ord(0,1):  - x(0,0) + x(0,2) >= 4
ord(0,2):  x(0,1) - x(0,2) >= 2
ord(1,1):  x(1,0) - x(1,1) >= 10
ord(1,2):  - x(1,0) + x(1,2) >= 7
ord(2,1):  x(2,0) - x(2,1) >= 1
ord(2,2):  - x(2,0) + x(2,2) >= 9
triangle2(0,1,0):  y(0,1,0) + y(1,0,0) = 1
triangle2(0,1,1):  y(0,1,1) + y(1,0,1) = 1
triangle2(0,1,2):  y(0,1,2) + y(1,0,2) = 1
triangle2(0,2,0):  y(0,2,0) + y(2,0,0) = 1
triangle2(0,2,1):  y(0,2,1) + y(2,0,1) = 1
triangle2(0,2,2):  y(0,2,2) + y(2,0,2) = 1
triangle2(1,2,0):  y(1,2,0) + y(2,1,0) = 1
triangle2(1,2,1):  y(1,2,1) + y(2,1,1) = 1
triangle2(1,2,2):  y(1,2,2) + y(2,1,2) = 1
MCLinV(0,1,0):  x(0,0) - v(0,1,0) - x(1,0) = 7
MCLinV(1,0,0):  - x(0,0) - v(1,0,0) + x(1,0) = 4
MCLin1(0,1,0):  u(0,1,0) >= -0
MCLin2(0,1,0):  -44 y(1,0,0) - u(0,1,0) <= -0
MCLin3(0,1,0):  19 y(1,0,0) + v(0,1,0) - u(0,1,0) <= 19
MCLin4(0,1,0):  19 y(1,0,0) - u(0,1,0) >= -0
MCLin5(0,1,0):  -44 y(1,0,0) + v(0,1,0) - u(0,1,0) >= -44
MCLin6(1,0,0):  u(1,0,0) >= -0
MCLin7(1,0,0):  -30 y(0,1,0) - u(1,0,0) <= -0
MCLin8(1,0,0):  33 y(0,1,0) + v(1,0,0) - u(1,0,0) <= 33
MCLin9(1,0,0):  33 y(0,1,0) - u(1,0,0) >= -0
MCLin10(1,0,0):  -30 y(0,1,0) + v(1,0,0) - u(1,0,0) >= -30
MCLinV(0,1,1):  x(0,1) - v(0,1,1) - x(1,1) = 10
MCLinV(1,0,1):  - x(0,1) - v(1,0,1) + x(1,1) = 8
MCLin1(0,1,1):  u(0,1,1) >= -0
MCLin2(0,1,1):  -31 y(1,0,1) - u(0,1,1) <= -0
MCLin3(0,1,1):  32 y(1,0,1) + v(0,1,1) - u(0,1,1) <= 32
MCLin4(0,1,1):  32 y(1,0,1) - u(0,1,1) >= -0
MCLin5(0,1,1):  -31 y(1,0,1) + v(0,1,1) - u(0,1,1) >= -31
MCLin6(1,0,1):  u(1,0,1) >= -0
MCLin7(1,0,1):  -50 y(0,1,1) - u(1,0,1) <= -0
MCLin8(1,0,1):  13 y(0,1,1) + v(1,0,1) - u(1,0,1) <= 13
MCLin9(1,0,1):  13 y(0,1,1) - u(1,0,1) >= -0
MCLin10(1,0,1):  -50 y(0,1,1) + v(1,0,1) - u(1,0,1) >= -50
MCLinV(0,1,2):  x(0,2) - v(0,1,2) - x(1,2) = 6
MCLinV(1,0,2):  - x(0,2) - v(1,0,2) + x(1,2) = 2
MCLin1(0,1,2):  u(0,1,2) >= -0
MCLin2(0,1,2):  -46 y(1,0,2) - u(0,1,2) <= -0
MCLin3(0,1,2):  17 y(1,0,2) + v(0,1,2) - u(0,1,2) <= 17
MCLin4(0,1,2):  17 y(1,0,2) - u(0,1,2) >= -0
MCLin5(0,1,2):  -46 y(1,0,2) + v(0,1,2) - u(0,1,2) >= -46
MCLin6(1,0,2):  u(1,0,2) >= -0
MCLin7(1,0,2):  -25 y(0,1,2) - u(1,0,2) <= -0
MCLin8(1,0,2):  38 y(0,1,2) + v(1,0,2) - u(1,0,2) <= 38
MCLin9(1,0,2):  38 y(0,1,2) - u(1,0,2) >= -0
MCLin10(1,0,2):  -25 y(0,1,2) + v(1,0,2) - u(1,0,2) >= -25
MCLinV(0,2,0):  x(0,0) - v(0,2,0) - x(2,0) = 9
MCLinV(2,0,0):  - x(0,0) - v(2,0,0) + x(2,0) = 4
MCLin1(0,2,0):  u(0,2,0) >= -0
MCLin2(0,2,0):  -47 y(2,0,0) - u(0,2,0) <= -0
MCLin3(0,2,0):  26 y(2,0,0) + v(0,2,0) - u(0,2,0) <= 26
MCLin4(0,2,0):  26 y(2,0,0) - u(0,2,0) >= -0
MCLin5(0,2,0):  -47 y(2,0,0) + v(0,2,0) - u(0,2,0) >= -47
MCLin6(2,0,0):  u(2,0,0) >= -0
MCLin7(2,0,0):  -39 y(0,2,0) - u(2,0,0) <= -0
MCLin8(2,0,0):  34 y(0,2,0) + v(2,0,0) - u(2,0,0) <= 34
MCLin9(2,0,0):  34 y(0,2,0) - u(2,0,0) >= -0
MCLin10(2,0,0):  -39 y(0,2,0) + v(2,0,0) - u(2,0,0) >= -39
MCLinV(0,2,1):  x(0,1) - v(0,2,1) - x(2,1) = 1
MCLinV(2,0,1):  - x(0,1) - v(2,0,1) + x(2,1) = 8
MCLin1(0,2,1):  u(0,2,1) >= -0
MCLin2(0,2,1):  -32 y(2,0,1) - u(0,2,1) <= -0
MCLin3(0,2,1):  41 y(2,0,1) + v(0,2,1) - u(0,2,1) <= 41
MCLin4(0,2,1):  41 y(2,0,1) - u(0,2,1) >= -0
MCLin5(0,2,1):  -32 y(2,0,1) + v(0,2,1) - u(0,2,1) >= -32
MCLin6(2,0,1):  u(2,0,1) >= -0
MCLin7(2,0,1):  -50 y(0,2,1) - u(2,0,1) <= -0
MCLin8(2,0,1):  23 y(0,2,1) + v(2,0,1) - u(2,0,1) <= 23
MCLin9(2,0,1):  23 y(0,2,1) - u(2,0,1) >= -0
MCLin10(2,0,1):  -50 y(0,2,1) + v(2,0,1) - u(2,0,1) >= -50
MCLinV(0,2,2):  x(0,2) - v(0,2,2) - x(2,2) = 3
MCLinV(2,0,2):  - x(0,2) - v(2,0,2) + x(2,2) = 2
MCLin1(0,2,2):  u(0,2,2) >= -0
MCLin2(0,2,2):  -46 y(2,0,2) - u(0,2,2) <= -0
MCLin3(0,2,2):  27 y(2,0,2) + v(0,2,2) - u(0,2,2) <= 27
MCLin4(0,2,2):  27 y(2,0,2) - u(0,2,2) >= -0
MCLin5(0,2,2):  -46 y(2,0,2) + v(0,2,2) - u(0,2,2) >= -46
MCLin6(2,0,2):  u(2,0,2) >= -0
MCLin7(2,0,2):  -32 y(0,2,2) - u(2,0,2) <= -0
MCLin8(2,0,2):  41 y(0,2,2) + v(2,0,2) - u(2,0,2) <= 41
MCLin9(2,0,2):  41 y(0,2,2) - u(2,0,2) >= -0
MCLin10(2,0,2):  -32 y(0,2,2) + v(2,0,2) - u(2,0,2) >= -32
MCLinV(1,2,0):  x(1,0) - v(1,2,0) - x(2,0) = 9
MCLinV(2,1,0):  - x(1,0) - v(2,1,0) + x(2,0) = 7
MCLin1(1,2,0):  u(1,2,0) >= -0
MCLin2(1,2,0):  -37 y(2,1,0) - u(1,2,0) <= -0
MCLin3(1,2,0):  27 y(2,1,0) + v(1,2,0) - u(1,2,0) <= 27
MCLin4(1,2,0):  27 y(2,1,0) - u(1,2,0) >= -0
MCLin5(1,2,0):  -37 y(2,1,0) + v(1,2,0) - u(1,2,0) >= -37
MCLin6(2,1,0):  u(2,1,0) >= -0
MCLin7(2,1,0):  -43 y(1,2,0) - u(2,1,0) <= -0
MCLin8(2,1,0):  21 y(1,2,0) + v(2,1,0) - u(2,1,0) <= 21
MCLin9(2,1,0):  21 y(1,2,0) - u(2,1,0) >= -0
MCLin10(2,1,0):  -43 y(1,2,0) + v(2,1,0) - u(2,1,0) >= -43
MCLinV(1,2,1):  x(1,1) - v(1,2,1) - x(2,1) = 1
MCLinV(2,1,1):  - x(1,1) - v(2,1,1) + x(2,1) = 10
MCLin1(1,2,1):  u(1,2,1) >= -0
MCLin2(1,2,1):  -38 y(2,1,1) - u(1,2,1) <= -0
MCLin3(1,2,1):  26 y(2,1,1) + v(1,2,1) - u(1,2,1) <= 26
MCLin4(1,2,1):  26 y(2,1,1) - u(1,2,1) >= -0
MCLin5(1,2,1):  -38 y(2,1,1) + v(1,2,1) - u(1,2,1) >= -38
MCLin6(2,1,1):  u(2,1,1) >= -0
MCLin7(2,1,1):  -37 y(1,2,1) - u(2,1,1) <= -0
MCLin8(2,1,1):  27 y(1,2,1) + v(2,1,1) - u(2,1,1) <= 27
MCLin9(2,1,1):  27 y(1,2,1) - u(2,1,1) >= -0
MCLin10(2,1,1):  -37 y(1,2,1) + v(2,1,1) - u(2,1,1) >= -37
MCLinV(1,2,2):  x(1,2) - v(1,2,2) - x(2,2) = 3
MCLinV(2,1,2):  - x(1,2) - v(2,1,2) + x(2,2) = 6
MCLin1(1,2,2):  u(1,2,2) >= -0
MCLin2(1,2,2):  -33 y(2,1,2) - u(1,2,2) <= -0
MCLin3(1,2,2):  31 y(2,1,2) + v(1,2,2) - u(1,2,2) <= 31
MCLin4(1,2,2):  31 y(2,1,2) - u(1,2,2) >= -0
MCLin5(1,2,2):  -33 y(2,1,2) + v(1,2,2) - u(1,2,2) >= -33
MCLin6(2,1,2):  u(2,1,2) >= -0
MCLin7(2,1,2):  -40 y(1,2,2) - u(2,1,2) <= -0
MCLin8(2,1,2):  24 y(1,2,2) + v(2,1,2) - u(2,1,2) <= 24
MCLin9(2,1,2):  24 y(1,2,2) - u(2,1,2) >= -0
MCLin10(2,1,2):  -40 y(1,2,2) + v(2,1,2) - u(2,1,2) >= -40
makespan(0):  C - x(0,1) >= 8
makespan(1):  C - x(1,2) >= 6
makespan(2):  C - x(2,2) >= 3
Bounds
 0 <= C <= 50
 0 <= x(0,0) <= 36
 0 <= y(0,1,0) <= 1
 0 <= y(1,0,0) <= 1
 -44 <= v(0,1,0) <= 19
 -30 <= v(1,0,0) <= 33
 -500 <= u(0,1,0)
 -500 <= u(1,0,0)
 0 <= y(0,2,0) <= 1
 0 <= y(2,0,0) <= 1
 -47 <= v(0,2,0) <= 26
 -39 <= v(2,0,0) <= 34
 -500 <= u(0,2,0)
 -500 <= u(2,0,0)
 10 <= x(1,0) <= 37
 0 <= y(1,2,0) <= 1
 0 <= y(2,1,0) <= 1
 -37 <= v(1,2,0) <= 27
 -43 <= v(2,1,0) <= 21
 -500 <= u(1,2,0)
 -500 <= u(2,1,0)
 1 <= x(2,0) <= 38
 6 <= x(0,1) <= 42
 0 <= y(0,1,1) <= 1
 0 <= y(1,0,1) <= 1
 -31 <= v(0,1,1) <= 32
 -50 <= v(1,0,1) <= 13
 -500 <= u(0,1,1)
 -500 <= u(1,0,1)
 0 <= y(0,2,1) <= 1
 0 <= y(2,0,1) <= 1
 -32 <= v(0,2,1) <= 41
 -50 <= v(2,0,1) <= 23
 -500 <= u(0,2,1)
 -500 <= u(2,0,1)
 0 <= x(1,1) <= 27
 0 <= y(1,2,1) <= 1
 0 <= y(2,1,1) <= 1
 -38 <= v(1,2,1) <= 26
 -37 <= v(2,1,1) <= 27
 -500 <= u(1,2,1)
 -500 <= u(2,1,1)
 0 <= x(2,1) <= 37
 4 <= x(0,2) <= 40
 0 <= y(0,1,2) <= 1
 0 <= y(1,0,2) <= 1
 -46 <= v(0,1,2) <= 17
 -25 <= v(1,0,2) <= 38
 -500 <= u(0,1,2)
 -500 <= u(1,0,2)
 0 <= y(0,2,2) <= 1
 0 <= y(2,0,2) <= 1
 -46 <= v(0,2,2) <= 27
 -32 <= v(2,0,2) <= 41
 -500 <= u(0,2,2)
 -500 <= u(2,0,2)
 17 <= x(1,2) <= 44
 0 <= y(1,2,2) <= 1
 0 <= y(2,1,2) <= 1
 -33 <= v(1,2,2) <= 31
 -40 <= v(2,1,2) <= 24
 -500 <= u(1,2,2)
 -500 <= u(2,1,2)
 10 <= x(2,2) <= 47
Integers
C x(0,0) y(0,1,0) y(1,0,0) v(0,1,0) v(1,0,0) u(0,1,0) u(1,0,0) y(0,2,0) y(2,0,0) 
v(0,2,0) v(2,0,0) u(0,2,0) u(2,0,0) x(1,0) y(1,2,0) y(2,1,0) v(1,2,0) v(2,1,0) u(1,2,0) 
u(2,1,0) x(2,0) x(0,1) y(0,1,1) y(1,0,1) v(0,1,1) v(1,0,1) u(0,1,1) u(1,0,1) y(0,2,1) 
y(2,0,1) v(0,2,1) v(2,0,1) u(0,2,1) u(2,0,1) x(1,1) y(1,2,1) y(2,1,1) v(1,2,1) v(2,1,1) 
u(1,2,1) u(2,1,1) x(2,1) x(0,2) y(0,1,2) y(1,0,2) v(0,1,2) v(1,0,2) u(0,1,2) u(1,0,2) 
y(0,2,2) y(2,0,2) v(0,2,2) v(2,0,2) u(0,2,2) u(2,0,2) x(1,2) y(1,2,2) y(2,1,2) v(1,2,2) 
v(2,1,2) u(1,2,2) u(2,1,2) x(2,2) 
End
